SAT
-26 -81 -42 96 65 16 -67 -14 -98 -85 -22 53 90 -49 -61 -56 54 -77 -75 50 -20 -78 -33 21 83 87 -44 -40 -23 8 7 -59 89 -74 88 -48 13 -17 -25 -62 72 -97 1 -4 -38 -15 -43 18 -69 -94 79 -76 -93 70 -99 -5 55 -46 -29 73 2 -9 -34 -51 -63 -84 28 -92 64 -60 19 -45 3 -52 57 11 -31 -66 -95 -91 -32 -41 -37 58 12 -24 71 -47 27 -82 68 35 -6 100 10 -39 -80 -36 -86 30 0
